\ Model coletaRSD
\ LP format - for model browsing. Use MPS format to capture full model detail.
Minimize
  10 x[1,2,1] + 10 x[1,2,2] + 10 x[1,2,3] + 5 x[1,4,1] + 5 x[1,4,2]
   + 5 x[1,4,3] + 10 x[2,1,1] + 10 x[2,1,2] + 10 x[2,1,3] + 3 x[2,3,1]
   + 3 x[2,3,2] + 3 x[2,3,3] + 5 x[2,4,1] + 5 x[2,4,2] + 5 x[2,4,3]
   + 3 x[3,2,1] + 3 x[3,2,2] + 3 x[3,2,3] + 20 x[3,4,1] + 20 x[3,4,2]
   + 20 x[3,4,3] + 5 x[4,1,1] + 5 x[4,1,2] + 5 x[4,1,3] + 5 x[4,2,1]
   + 5 x[4,2,2] + 5 x[4,2,3] + 20 x[4,3,1] + 20 x[4,3,2] + 20 x[4,3,3]
Subject To
 R1[1][1]: - x[1,2,1] - x[1,4,1] + x[2,1,1] + x[4,1,1] = 0
 R1[1][2]: - x[1,2,2] - x[1,4,2] + x[2,1,2] + x[4,1,2] = 0
 R1[1][3]: - x[1,2,3] - x[1,4,3] + x[2,1,3] + x[4,1,3] = 0
 R1[2][1]: x[1,2,1] - x[2,1,1] - x[2,3,1] - x[2,4,1] + x[3,2,1] + x[4,2,1]
   = 0
 R1[2][2]: x[1,2,2] - x[2,1,2] - x[2,3,2] - x[2,4,2] + x[3,2,2] + x[4,2,2]
   = 0
 R1[2][3]: x[1,2,3] - x[2,1,3] - x[2,3,3] - x[2,4,3] + x[3,2,3] + x[4,2,3]
   = 0
 R1[3][1]: x[2,3,1] - x[3,2,1] - x[3,4,1] + x[4,3,1] = 0
 R1[3][2]: x[2,3,2] - x[3,2,2] - x[3,4,2] + x[4,3,2] = 0
 R1[3][3]: x[2,3,3] - x[3,2,3] - x[3,4,3] + x[4,3,3] = 0
 R1[4][1]: x[1,4,1] + x[2,4,1] + x[3,4,1] - x[4,1,1] - x[4,2,1] - x[4,3,1]
   = 0
 R1[4][2]: x[1,4,2] + x[2,4,2] + x[3,4,2] - x[4,1,2] - x[4,2,2] - x[4,3,2]
   = 0
 R1[4][3]: x[1,4,3] + x[2,4,3] + x[3,4,3] - x[4,1,3] - x[4,2,3] - x[4,3,3]
   = 0
 R2[1][2]: l[1,2,1] + l[1,2,2] + l[1,2,3] + l[2,1,1] + l[2,1,2] + l[2,1,3]
   = 1
 R2[1][4]: l[1,4,1] + l[1,4,2] + l[1,4,3] + l[4,1,1] + l[4,1,2] + l[4,1,3]
   = 1
 R2[2][1]: l[1,2,1] + l[1,2,2] + l[1,2,3] + l[2,1,1] + l[2,1,2] + l[2,1,3]
   = 1
 R2[2][3]: l[2,3,1] + l[2,3,2] + l[2,3,3] + l[3,2,1] + l[3,2,2] + l[3,2,3]
   = 1
 R2[2][4]: l[2,4,1] + l[2,4,2] + l[2,4,3] + l[4,2,1] + l[4,2,2] + l[4,2,3]
   = 1
 R2[3][2]: l[2,3,1] + l[2,3,2] + l[2,3,3] + l[3,2,1] + l[3,2,2] + l[3,2,3]
   = 1
 R2[3][4]: l[3,4,1] + l[3,4,2] + l[3,4,3] + l[4,3,1] + l[4,3,2] + l[4,3,3]
   = 1
 R2[4][1]: l[1,4,1] + l[1,4,2] + l[1,4,3] + l[4,1,1] + l[4,1,2] + l[4,1,3]
   = 1
 R2[4][2]: l[2,4,1] + l[2,4,2] + l[2,4,3] + l[4,2,1] + l[4,2,2] + l[4,2,3]
   = 1
 R2[4][3]: l[3,4,1] + l[3,4,2] + l[3,4,3] + l[4,3,1] + l[4,3,2] + l[4,3,3]
   = 1
 R3[1][1][2]: x[1,2,1] - l[1,2,1] >= 0
 R3[1][1][4]: x[1,4,1] - l[1,4,1] >= 0
 R3[1][2][1]: x[2,1,1] - l[2,1,1] >= 0
 R3[1][2][3]: x[2,3,1] - l[2,3,1] >= 0
 R3[1][2][4]: x[2,4,1] - l[2,4,1] >= 0
 R3[1][3][2]: x[3,2,1] - l[3,2,1] >= 0
 R3[1][3][4]: x[3,4,1] - l[3,4,1] >= 0
 R3[1][4][1]: x[4,1,1] - l[4,1,1] >= 0
 R3[1][4][2]: x[4,2,1] - l[4,2,1] >= 0
 R3[1][4][3]: x[4,3,1] - l[4,3,1] >= 0
 R3[2][1][2]: x[1,2,2] - l[1,2,2] >= 0
 R3[2][1][4]: x[1,4,2] - l[1,4,2] >= 0
 R3[2][2][1]: x[2,1,2] - l[2,1,2] >= 0
 R3[2][2][3]: x[2,3,2] - l[2,3,2] >= 0
 R3[2][2][4]: x[2,4,2] - l[2,4,2] >= 0
 R3[2][3][2]: x[3,2,2] - l[3,2,2] >= 0
 R3[2][3][4]: x[3,4,2] - l[3,4,2] >= 0
 R3[2][4][1]: x[4,1,2] - l[4,1,2] >= 0
 R3[2][4][2]: x[4,2,2] - l[4,2,2] >= 0
 R3[2][4][3]: x[4,3,2] - l[4,3,2] >= 0
 R3[3][1][2]: x[1,2,3] - l[1,2,3] >= 0
 R3[3][1][4]: x[1,4,3] - l[1,4,3] >= 0
 R3[3][2][1]: x[2,1,3] - l[2,1,3] >= 0
 R3[3][2][3]: x[2,3,3] - l[2,3,3] >= 0
 R3[3][2][4]: x[2,4,3] - l[2,4,3] >= 0
 R3[3][3][2]: x[3,2,3] - l[3,2,3] >= 0
 R3[3][3][4]: x[3,4,3] - l[3,4,3] >= 0
 R3[3][4][1]: x[4,1,3] - l[4,1,3] >= 0
 R3[3][4][2]: x[4,2,3] - l[4,2,3] >= 0
 R3[3][4][3]: x[4,3,3] - l[4,3,3] >= 0
 R4[1]: 20 l[1,2,1] + 20 l[1,4,1] + 20 l[2,1,1] + 5 l[2,3,1] + 7 l[2,4,1]
   + 5 l[3,2,1] + 40 l[3,4,1] + 20 l[4,1,1] + 7 l[4,2,1] + 40 l[4,3,1]
   <= 40
 R4[2]: 20 l[1,2,2] + 20 l[1,4,2] + 20 l[2,1,2] + 5 l[2,3,2] + 7 l[2,4,2]
   + 5 l[3,2,2] + 40 l[3,4,2] + 20 l[4,1,2] + 7 l[4,2,2] + 40 l[4,3,2]
   <= 40
 R4[3]: 20 l[1,2,3] + 20 l[1,4,3] + 20 l[2,1,3] + 5 l[2,3,3] + 7 l[2,4,3]
   + 5 l[3,2,3] + 40 l[3,4,3] + 20 l[4,1,3] + 7 l[4,2,3] + 40 l[4,3,3]
   <= 40
 R5[2][1]: - f[1,2,1] - l[2,1,1] + f[2,1,1] - l[2,3,1] + f[2,3,1]
   - l[2,4,1] + f[2,4,1] - f[3,2,1] - f[4,2,1] = 0
 R5[2][2]: - f[1,2,2] - l[2,1,2] + f[2,1,2] - l[2,3,2] + f[2,3,2]
   - l[2,4,2] + f[2,4,2] - f[3,2,2] - f[4,2,2] = 0
 R5[2][3]: - f[1,2,3] - l[2,1,3] + f[2,1,3] - l[2,3,3] + f[2,3,3]
   - l[2,4,3] + f[2,4,3] - f[3,2,3] - f[4,2,3] = 0
 R5[3][1]: - f[2,3,1] - l[3,2,1] + f[3,2,1] - l[3,4,1] + f[3,4,1]
   - f[4,3,1] = 0
 R5[3][2]: - f[2,3,2] - l[3,2,2] + f[3,2,2] - l[3,4,2] + f[3,4,2]
   - f[4,3,2] = 0
 R5[3][3]: - f[2,3,3] - l[3,2,3] + f[3,2,3] - l[3,4,3] + f[3,4,3]
   - f[4,3,3] = 0
 R5[4][1]: - f[1,4,1] - f[2,4,1] - f[3,4,1] - l[4,1,1] + f[4,1,1]
   - l[4,2,1] + f[4,2,1] - l[4,3,1] + f[4,3,1] = 0
 R5[4][2]: - f[1,4,2] - f[2,4,2] - f[3,4,2] - l[4,1,2] + f[4,1,2]
   - l[4,2,2] + f[4,2,2] - l[4,3,2] + f[4,3,2] = 0
 R5[4][3]: - f[1,4,3] - f[2,4,3] - f[3,4,3] - l[4,1,3] + f[4,1,3]
   - l[4,2,3] + f[4,2,3] - l[4,3,3] + f[4,3,3] = 0
 R5'[1][1,2]: 16 x[1,2,1] - f[1,2,1] >= 0
 R5'[1][1,4]: 16 x[1,4,1] - f[1,4,1] >= 0
 R5'[1][2,1]: 16 x[2,1,1] - f[2,1,1] >= 0
 R5'[1][2,3]: 16 x[2,3,1] - f[2,3,1] >= 0
 R5'[1][2,4]: 16 x[2,4,1] - f[2,4,1] >= 0
 R5'[1][3,2]: 16 x[3,2,1] - f[3,2,1] >= 0
 R5'[1][3,4]: 16 x[3,4,1] - f[3,4,1] >= 0
 R5'[1][4,1]: 16 x[4,1,1] - f[4,1,1] >= 0
 R5'[1][4,2]: 16 x[4,2,1] - f[4,2,1] >= 0
 R5'[1][4,3]: 16 x[4,3,1] - f[4,3,1] >= 0
 R5'[2][1,2]: 16 x[1,2,2] - f[1,2,2] >= 0
 R5'[2][1,4]: 16 x[1,4,2] - f[1,4,2] >= 0
 R5'[2][2,1]: 16 x[2,1,2] - f[2,1,2] >= 0
 R5'[2][2,3]: 16 x[2,3,2] - f[2,3,2] >= 0
 R5'[2][2,4]: 16 x[2,4,2] - f[2,4,2] >= 0
 R5'[2][3,2]: 16 x[3,2,2] - f[3,2,2] >= 0
 R5'[2][3,4]: 16 x[3,4,2] - f[3,4,2] >= 0
 R5'[2][4,1]: 16 x[4,1,2] - f[4,1,2] >= 0
 R5'[2][4,2]: 16 x[4,2,2] - f[4,2,2] >= 0
 R5'[2][4,3]: 16 x[4,3,2] - f[4,3,2] >= 0
 R5'[3][1,2]: 16 x[1,2,3] - f[1,2,3] >= 0
 R5'[3][1,4]: 16 x[1,4,3] - f[1,4,3] >= 0
 R5'[3][2,1]: 16 x[2,1,3] - f[2,1,3] >= 0
 R5'[3][2,3]: 16 x[2,3,3] - f[2,3,3] >= 0
 R5'[3][2,4]: 16 x[2,4,3] - f[2,4,3] >= 0
 R5'[3][3,2]: 16 x[3,2,3] - f[3,2,3] >= 0
 R5'[3][3,4]: 16 x[3,4,3] - f[3,4,3] >= 0
 R5'[3][4,1]: 16 x[4,1,3] - f[4,1,3] >= 0
 R5'[3][4,2]: 16 x[4,2,3] - f[4,2,3] >= 0
 R5'[3][4,3]: 16 x[4,3,3] - f[4,3,3] >= 0
Bounds
Binaries
 x[1,2,1] l[1,2,1] x[1,2,2] l[1,2,2] x[1,2,3] l[1,2,3] x[1,4,1] l[1,4,1]
 x[1,4,2] l[1,4,2] x[1,4,3] l[1,4,3] x[2,1,1] l[2,1,1] x[2,1,2] l[2,1,2]
 x[2,1,3] l[2,1,3] x[2,3,1] l[2,3,1] x[2,3,2] l[2,3,2] x[2,3,3] l[2,3,3]
 x[2,4,1] l[2,4,1] x[2,4,2] l[2,4,2] x[2,4,3] l[2,4,3] x[3,2,1] l[3,2,1]
 x[3,2,2] l[3,2,2] x[3,2,3] l[3,2,3] x[3,4,1] l[3,4,1] x[3,4,2] l[3,4,2]
 x[3,4,3] l[3,4,3] x[4,1,1] l[4,1,1] x[4,1,2] l[4,1,2] x[4,1,3] l[4,1,3]
 x[4,2,1] l[4,2,1] x[4,2,2] l[4,2,2] x[4,2,3] l[4,2,3] x[4,3,1] l[4,3,1]
 x[4,3,2] l[4,3,2] x[4,3,3] l[4,3,3]
Generals
 f[1,2,1] f[1,2,2] f[1,2,3] f[1,4,1] f[1,4,2] f[1,4,3] f[2,1,1] f[2,1,2]
 f[2,1,3] f[2,3,1] f[2,3,2] f[2,3,3] f[2,4,1] f[2,4,2] f[2,4,3] f[3,2,1]
 f[3,2,2] f[3,2,3] f[3,4,1] f[3,4,2] f[3,4,3] f[4,1,1] f[4,1,2] f[4,1,3]
 f[4,2,1] f[4,2,2] f[4,2,3] f[4,3,1] f[4,3,2] f[4,3,3]
End
